; PUSH cw_3 SWAP1 DUP2 SWAP1 => PUSH cw_3 PUSH cw_3 SWAP2
(set-option :produce-proofs true)
; 
(set-info :status unknown)
(declare-fun storage_t ((_ BitVec 256) (_ BitVec 256) Int (_ BitVec 256)) (_ BitVec 256))
(declare-fun w_3 () (_ BitVec 256))
(declare-fun storage_s ((_ BitVec 256) (_ BitVec 256) Int (_ BitVec 256)) (_ BitVec 256))
(declare-fun exc_halt_t (Int) Bool)
(declare-fun exc_halt_s (Int) Bool)
(declare-fun stack_t ((_ BitVec 256) (_ BitVec 256) Int (_ BitVec 6)) (_ BitVec 256))
(declare-fun stack_s ((_ BitVec 256) (_ BitVec 256) Int (_ BitVec 6)) (_ BitVec 256))
(declare-fun sc_t (Int) (_ BitVec 6))
(declare-fun sc_s (Int) (_ BitVec 6))
(declare-fun used_gas_t ((_ BitVec 256) (_ BitVec 256) Int) Int)
(declare-fun used_gas_s ((_ BitVec 256) (_ BitVec 256) Int) Int)
(assert
 (exists ((x_0 (_ BitVec 256)) )(let (($x1383 (forall ((w (_ BitVec 256)) )(let ((?x9043 (storage_t x_0 w_3 3 w)))
 (let ((?x11241 (storage_s x_0 w_3 4 w)))
 (= ?x11241 ?x9043))))
 ))
 (let (($x3614 (exc_halt_t 3)))
 (let (($x7172 (exc_halt_s 4)))
 (let (($x3170 (= $x7172 $x3614)))
 (let (($x7363 (forall ((n (_ BitVec 6)) )(let ((?x7264 (stack_t x_0 w_3 3 n)))
 (let ((?x9678 (stack_s x_0 w_3 4 n)))
 (let (($x7160 (= ?x9678 ?x7264)))
 (let ((?x11304 (sc_t 3)))
 (let (($x5286 (bvsle ?x11304 n)))
 (or $x5286 $x7160)))))))
 ))
 (let ((?x11304 (sc_t 3)))
 (let ((?x4305 (sc_s 4)))
 (let (($x1855 (= ?x4305 ?x11304)))
 (let ((?x9149 (used_gas_t x_0 w_3 0)))
 (let ((?x10992 (used_gas_s x_0 w_3 0)))
 (let (($x6029 (= ?x10992 ?x9149)))
 (let (($x8749 (forall ((w (_ BitVec 256)) )(let ((?x3187 (storage_t x_0 w_3 0 w)))
 (let ((?x9187 (storage_s x_0 w_3 0 w)))
 (= ?x9187 ?x3187))))
 ))
 (let (($x56 (exc_halt_t 0)))
 (let (($x57 (exc_halt_s 0)))
 (let (($x58 (= $x57 $x56)))
 (let (($x4092 (forall ((n (_ BitVec 6)) )(let ((?x63 (sc_t 0)))
 (let (($x11489 (bvsle ?x63 n)))
 (let ((?x8054 (stack_t x_0 w_3 0 n)))
 (let ((?x9715 (stack_s x_0 w_3 0 n)))
 (let (($x4219 (= ?x9715 ?x8054)))
 (or $x4219 $x11489)))))))
 ))
 (let ((?x63 (sc_t 0)))
 (let ((?x72 (sc_s 0)))
 (let (($x73 (= ?x72 ?x63)))
 (let (($x8539 (= $x3614 (or (exc_halt_t 2) (not (bvsle (_ bv0 6) (bvadd (_ bv61 6) (sc_t 2))))))))
 (let (($x5586 (forall ((w (_ BitVec 256)) )(let ((?x1603 (storage_t x_0 w_3 2 w)))
 (let ((?x9043 (storage_t x_0 w_3 3 w)))
 (= ?x9043 ?x1603))))
 ))
 (let (($x8313 (forall ((n (_ BitVec 6)) )(or (bvsle (bvadd (_ bv61 6) (sc_t 2)) n) (= (stack_t x_0 w_3 3 n) (stack_t x_0 w_3 2 n))))
 ))
 (let ((?x6158 (sc_t 2)))
 (let (($x8376 (= ?x11304 ?x6158)))
 (let (($x9285 (= (used_gas_t x_0 w_3 3) (+ 3 (used_gas_t x_0 w_3 2)))))
 (let (($x2951 (= (stack_t x_0 w_3 3 (bvadd (_ bv62 6) ?x11304)) (stack_t x_0 w_3 2 (bvadd (_ bv62 6) ?x6158)))))
 (let (($x10331 (= (stack_t x_0 w_3 3 (bvadd (_ bv61 6) ?x11304)) (stack_t x_0 w_3 2 (bvadd (_ bv63 6) ?x6158)))))
 (let (($x6529 (= (stack_t x_0 w_3 3 (bvadd (_ bv63 6) ?x11304)) (stack_t x_0 w_3 2 (bvadd (_ bv61 6) ?x6158)))))
 (let (($x6160 (not (= ((_ extract 6 6) (bvadd (_ bv1 7) (concat (_ bv0 1) (sc_t 1)))) (_ bv0 1)))))
 (let (($x8377 (exc_halt_t 1)))
 (let (($x8115 (exc_halt_t 2)))
 (let (($x11320 (= $x8115 (or $x8377 $x6160))))
 (let (($x1498 (forall ((w (_ BitVec 256)) )(let ((?x6354 (storage_t x_0 w_3 1 w)))
 (let ((?x1603 (storage_t x_0 w_3 2 w)))
 (= ?x1603 ?x6354))))
 ))
 (let (($x3799 (forall ((n (_ BitVec 6)) )(let ((?x7154 (sc_t 1)))
 (let (($x3342 (bvsle ?x7154 n)))
 (or $x3342 (= (stack_t x_0 w_3 2 n) (stack_t x_0 w_3 1 n))))))
 ))
 (let (($x9815 (= ?x6158 (bvadd (_ bv1 6) (sc_t 1)))))
 (let ((?x7036 (used_gas_t x_0 w_3 2)))
 (let (($x6488 (= $x8377 (or $x56 (not (= ((_ extract 6 6) (bvadd (_ bv1 7) (concat (_ bv0 1) ?x63))) (_ bv0 1)))))))
 (let (($x10634 (forall ((w (_ BitVec 256)) )(let ((?x3187 (storage_t x_0 w_3 0 w)))
 (let ((?x6354 (storage_t x_0 w_3 1 w)))
 (= ?x6354 ?x3187))))
 ))
 (let (($x5580 (forall ((n (_ BitVec 6)) )(let ((?x63 (sc_t 0)))
 (let (($x11489 (bvsle ?x63 n)))
 (or (= (stack_t x_0 w_3 1 n) (stack_t x_0 w_3 0 n)) $x11489))))
 ))
 (let ((?x7154 (sc_t 1)))
 (let (($x10389 (= ?x7154 (bvadd (_ bv1 6) ?x63))))
 (let (($x9998 (= $x7172 (or (exc_halt_s 3) (not (bvsle (_ bv0 6) (bvadd (_ bv62 6) (sc_s 3))))))))
 (let (($x4999 (forall ((w (_ BitVec 256)) )(let ((?x652 (storage_s x_0 w_3 3 w)))
 (let ((?x11241 (storage_s x_0 w_3 4 w)))
 (= ?x11241 ?x652))))
 ))
 (let (($x6117 (forall ((n (_ BitVec 6)) )(let ((?x275 (sc_s 3)))
 (let ((?x4269 (bvadd (_ bv62 6) ?x275)))
 (let (($x1714 (bvsle ?x4269 n)))
 (or $x1714 (= (stack_s x_0 w_3 4 n) (stack_s x_0 w_3 3 n)))))))
 ))
 (let ((?x275 (sc_s 3)))
 (let (($x10711 (= ?x4305 ?x275)))
 (let (($x8040 (= (used_gas_s x_0 w_3 4) (+ 3 (used_gas_s x_0 w_3 3)))))
 (let ((?x7749 (bvadd (_ bv63 6) ?x275)))
 (let ((?x10581 (stack_s x_0 w_3 3 ?x7749)))
 (let (($x4958 (= (stack_s x_0 w_3 4 (bvadd (_ bv63 6) ?x4305)) (stack_s x_0 w_3 3 (bvadd (_ bv62 6) ?x275)))))
 (let (($x6754 (not (= ((_ extract 6 6) (bvadd (_ bv1 7) (concat (_ bv0 1) (sc_s 2)))) (_ bv0 1)))))
 (let (($x1297 (not (bvsle (_ bv0 6) (bvadd (_ bv62 6) (sc_s 2))))))
 (let (($x247 (exc_halt_s 2)))
 (let (($x292 (exc_halt_s 3)))
 (let (($x9418 (forall ((w (_ BitVec 256)) )(let ((?x11388 (storage_s x_0 w_3 2 w)))
 (let ((?x652 (storage_s x_0 w_3 3 w)))
 (= ?x652 ?x11388))))
 ))
 (let (($x6320 (forall ((n (_ BitVec 6)) )(let ((?x218 (sc_s 2)))
 (let ((?x1898 (bvadd (_ bv62 6) ?x218)))
 (let (($x10861 (bvsle ?x1898 n)))
 (or (= (stack_s x_0 w_3 3 n) (stack_s x_0 w_3 2 n)) $x10861)))))
 ))
 (let (($x9686 (= ?x275 (bvadd (_ bv1 6) (sc_s 2)))))
 (let ((?x9605 (used_gas_s x_0 w_3 3)))
 (let ((?x218 (sc_s 2)))
 (let ((?x4018 (bvadd (_ bv63 6) ?x218)))
 (let ((?x11512 (stack_s x_0 w_3 2 ?x4018)))
 (let ((?x1898 (bvadd (_ bv62 6) ?x218)))
 (let ((?x7017 (stack_s x_0 w_3 2 ?x1898)))
 (let (($x9840 (= $x247 (or (exc_halt_s 1) (not (bvsle (_ bv0 6) (bvadd (_ bv62 6) (sc_s 1))))))))
 (let (($x2700 (forall ((w (_ BitVec 256)) )(let ((?x9266 (storage_s x_0 w_3 1 w)))
 (let ((?x11388 (storage_s x_0 w_3 2 w)))
 (= ?x11388 ?x9266))))
 ))
 (let (($x8646 (forall ((n (_ BitVec 6)) )(let ((?x154 (sc_s 1)))
 (let ((?x9584 (bvadd (_ bv62 6) ?x154)))
 (let (($x1345 (bvsle ?x9584 n)))
 (or $x1345 (= (stack_s x_0 w_3 2 n) (stack_s x_0 w_3 1 n)))))))
 ))
 (let ((?x154 (sc_s 1)))
 (let (($x4858 (= ?x218 ?x154)))
 (let ((?x10320 (used_gas_s x_0 w_3 2)))
 (let (($x189 (exc_halt_s 1)))
 (let (($x9826 (= $x189 (or $x57 (not (= ((_ extract 6 6) (bvadd (_ bv1 7) (concat (_ bv0 1) ?x72))) (_ bv0 1)))))))
 (let (($x9960 (forall ((w (_ BitVec 256)) )(let ((?x9187 (storage_s x_0 w_3 0 w)))
 (let ((?x9266 (storage_s x_0 w_3 1 w)))
 (= ?x9266 ?x9187))))
 ))
 (let (($x3694 (forall ((n (_ BitVec 6)) )(let ((?x72 (sc_s 0)))
 (let (($x4372 (bvsle ?x72 n)))
 (or (= (stack_s x_0 w_3 1 n) (stack_s x_0 w_3 0 n)) $x4372))))
 ))
 (let (($x3182 (= ?x154 (bvadd (_ bv1 6) ?x72))))
 (let (($x9501 (forall ((w (_ BitVec 256)) )(let ((?x9187 (storage_s x_0 w_3 0 w)))
 (= ?x9187 (_ bv0 256))))
 ))
 (let (($x6612 (= ?x10992 0)))
 (let (($x9420 (not $x57)))
 (let (($x5313 (= (stack_s x_0 w_3 0 (_ bv0 6)) x_0)))
 (let (($x7315 (= ?x72 (_ bv1 6))))
 (and $x7315 $x5313 $x9420 $x6612 $x9501 (= (stack_s x_0 w_3 1 ?x72) w_3) (= (used_gas_s x_0 w_3 1) (+ 3 ?x10992)) $x3182 $x3694 $x9960 $x9826 (= ?x11512 (stack_s x_0 w_3 1 (bvadd (_ bv62 6) ?x154))) (= ?x7017 (stack_s x_0 w_3 1 (bvadd (_ bv63 6) ?x154))) (= ?x10320 (+ 3 (used_gas_s x_0 w_3 1))) $x4858 $x8646 $x2700 $x9840 (= ?x10581 ?x7017) (= (stack_s x_0 w_3 3 ?x1898) ?x7017) (= (stack_s x_0 w_3 3 ?x4018) ?x11512) (= ?x9605 (+ 3 ?x10320)) $x9686 $x6320 $x9418 (= $x292 (or $x247 $x1297 $x6754)) $x4958 (= (stack_s x_0 w_3 4 (bvadd (_ bv62 6) ?x4305)) ?x10581) $x8040 $x10711 $x6117 $x4999 $x9998 (= (stack_t x_0 w_3 1 ?x63) w_3) (= (used_gas_t x_0 w_3 1) (+ 3 ?x9149)) $x10389 $x5580 $x10634 $x6488 (= (stack_t x_0 w_3 2 ?x7154) w_3) (= ?x7036 (+ 3 (used_gas_t x_0 w_3 1))) $x9815 $x3799 $x1498 $x11320 $x6529 $x10331 $x2951 $x9285 $x8376 $x8313 $x5586 $x8539 $x73 $x4092 $x58 $x8749 $x6029 (not (and $x1855 $x7363 $x3170 $x1383)))))))))))))))))))))))))))))))))))))))))))))))))))))))))))))))))))))))))))))))))))
 )
(check-sat)
(get-proof)
